Vendor/gnuwin32/man/man1/glpsol.1
.TH GLPSOL "1" "Jan 2005" "GLPSOL, Version 4.8" "User Commands"
.SH NAME
GLPSOL \- GLPK linear programming/MIP solver
.SH SYNOPSIS
.B glpsol
[\fIoptions\fR...] \fIfilename\fR
.SH DESCRIPTION
.SS "General options:"
.TP
\fB\-\-glp\fR
read LP/MIP problem in GNU LP format
.TP
\fB\-\-mps\fR
read LP/MIP problem in fixed MPS format (default)
.TP
\fB\-\-freemps\fR
read LP/MIP problem in free MPS format 
.TP
\fB\-\-cpxlp\fR
read LP/MIP problem in CPLEX LP format
.TP
\fB\-\-math\fR
read LP/MIP model written in GNU MathProg modeling
language
.TP
\fB\-m\fR filename, \fB\-\-model\fR filename
read model section and optional data section from filename 
(the same as \fB\-\-math\fR)
.TP
\fB\-d\fR filename, \fB\-\-data\fR filename
read data section from filename (for \fB\-\-math\fR only);
if data section follows model section in the same file,
this option is ignored
.TP
\fB\-y\fR filename, \fB\-\-display\fR filename
send display output to filename (for \fB\-\-math\fR only);
by default the output is sent to stdout
.TP
\fB\-\-min\fR
minimization
.TP
\fB\-\-max\fR
maximization
.TP
\fB\-\-scale\fR
scale the problem (default)
.TP
\fB\-\-noscale\fR
do not scale the problem
.TP
\fB\-\-simplex\fR
use simplex method (default)
.TP
\fB\-\-interior\fR
use interior point method (for pure LP only)
.TP
\fB\-o\fR filename, \fB\-\-output\fR filename
write solution to filename in plain text format
.TP
\fB\-\-bounds\fR filename
write sensitivity bounds to filename in plain text format (LP only)
.TP
\fB\-\-tmlim\fR nnn
limit solution time to nnn seconds
.TP
\fB\-\-memlim\fR nnn
limit available memory to nnn megabytes
.TP
\fB\-\-check\fR
do not solve the problem, check input data only
.TP
\fB\-\-name\fR probname
change problem name to probname
.TP
\fB\-\-plain\fR
use plain names of rows and columns (default)
.TP
\fB\-\-orig\fR
try using original names of rows and columns (default for --mps)
.TP
\fB\-\-wglp\fR filename
write problem to filename in GNU LP format
.TP
\fB\-\-wmps\fR filename
write problem to filename in fixed MPS format
.TP
\fB\-\-wfreemps\fR filename
write problem to filename in free MPS format
.TP
\fB\-\-wcpxlp\fR filename
write problem to filename in CPLEX LP format
.TP
\fB\-\-wtxt\fR filename
write problem to filename in plain text format
.TP
\fB\-h\fR, \fB\-\-help\fR
display this help information and exit
.TP
\fB\-v\fR, \fB\-\-version\fR
display program version and exit
.SS "Options specific to simplex method:"
.TP
\fB\-\-std\fR
use standard initial basis of all slacks
.TP
\fB\-\-adv\fR
use advanced initial basis (default)
.TP
\fB\-\-bas\fR filename
read initial basis from filename in MPS format
.TP
\fB\-\-steep\fR
use steepest edge technique (default)
.TP
\fB\-\-nosteep\fR
use standard "textbook" pricing
.TP
\fB\-\-relax\fR
use Harris' two-pass ratio test (default)
.TP
\fB\-\-norelax\fR
use standard "textbook" ratio test
.TP
\fB\-\-presol\fR
use presolver (default; assumes \fB\-\-scale\fR and \fB\-\-adv\fR)
.TP
\fB\-\-nopresol\fR
do not use presolver
.TP
\fB\-\-wbas\fR filename
write final basis to filename in MPS format
.SS "Options specific to MIP:"
.TP
\fB\-\-nomip\fR
consider all integer variables as continuous
(allows solving MIP as pure LP)
.TP
\fB\-\-first\fR
branch on first integer variable
.TP
\fB\-\-last\fR
branch on last integer variable
.TP
\fB\-\-drtom\fR
branch using heuristic by Driebeck and Tomlin
(default)
.TP
\fB\-\-mostf\fR
branch on most fractional variable
.TP
\fB\-\-dfs\fR
backtrack using depth first search
.TP
\fB\-\-bfs\fR
backtrack using breadth first search
.TP
\fB\-\-bestp\fR
backtrack using the best projection heuristic
(default)
.TP
\fB\-\-bestb\fR
backtrack using node with best local bound
.SH "REPORTING BUGS"
Please report bugs to <bug-glpk@gnu.org>.
.SH COPYRIGHT
Copyright \(co 2000, 2001, 2002, 2003, 2004, 2005 Andrew Makhorin
<mao@gnu.org>  This program is free software; you may redistribute it
under the terms of the GNU General Public License. This program has
absolutely no warranty.
.SH "SEE ALSO"
.TP
.BR /usr/share/doc/glpk/
Documentation about GLPK, its C API, the GNU MathProg modeling
language, and MPS and LP file formats in PostScript format.
.PP
See also the official GNU webpage dedicated to GLPK at
<http://www.gnu.org/software/glpk/glpk.html>.
